(set-logic UFDT)
(declare-datatypes ((nat 0)) (((zero) (s (s0 nat)))))
(declare-fun add (nat nat) nat)
(declare-fun leq (nat nat) Bool)
(assert (forall ((y nat)) (= (add zero y) y)))
(assert (forall ((x nat) (y nat)) (= (add (s x) y) (s (add x y)))))
(assert (forall ((y nat)) (leq zero y)))
(assert (forall ((x nat)) (not (leq (s x) zero))))
(assert (forall ((x nat) (y nat)) (= (leq (s x) (s y)) (leq x y))))
(assert (not (forall ((v0 nat) (v1 nat) (v2 nat) (v3 nat) (v4 nat) (v5 nat) (v6 nat)) (= (s (add (s (add (s v3) (s (s (s v0))))) (s (s (add (s (add v4 (s (add (s v1) (s (s (s (s (add (s (s v6)) (s v2)))))))))) (add (add (s zero) (s v2)) (s v5))))))) (add (add (s (s (s (add v0 (add (s (s (s (add (s (s (s v4))) (s v6))))) (s (add (s (add (add (s (s v2)) (s v1)) (s v3))) (s zero)))))))) (s (s (s (s v2))))) v5)))))
(check-sat)
